p tw 103 111
1 2
2 16
3 7
3 15
4 5
5 6
7 8
8 9
9 10
10 11
11 12
12 13
13 14
13 15
14 5
15 17
16 27
17 18
18 19
19 20
20 21
21 22
22 23
23 24
23 34
24 25
25 26
26 28
27 38
28 29
29 30
30 31
31 32
32 33
33 34
33 47
34 35
35 36
36 37
37 39
38 49
39 40
40 41
41 42
42 43
43 44
44 45
45 46
46 47
47 48
48 50
49 60
50 51
51 52
52 53
53 54
54 55
55 56
55 81
56 57
57 58
58 59
59 61
60 71
61 62
62 63
62 81
63 64
64 65
65 66
65 5
66 67
67 68
68 69
69 70
70 72
71 82
72 73
73 74
74 75
75 76
76 77
77 78
78 79
79 80
80 5
81 83
82 93
83 84
84 85
85 86
86 87
86 88
87 5
88 89
89 90
90 91
91 92
91 95
92 94
93 3
94 95
95 96
96 97
97 98
98 99
99 100
100 101
101 102
102 103
103 4
